0 48
1 43
2 48
3 49
4 49
5 49
6 49
7 49
8 49
9 49
10 51
11 56
12 57
13 57
14 56
15 56
16 56
17 59
18 59
19 59
20 60
21 58
22 58
23 61
24 62
25 63
26 64
27 64
28 64
29 64
30 60
31 59
32 69
33 60
34 54
35 51
36 51
37 51
38 52
39 52
40 48
41 51
